language ESSENCE' 1.0

letting n be 5
letting squareType be [
    [0,0,2,0,0],
    [0,0,0,0,0],
    [1,0,1,0,1],
    [0,0,0,0,0],
    [0,0,2,0,0]]

letting clues be [
    [0,0,2,0,0],
    [0,0,0,0,0],
    [0,0,0,0,0],
    [0,0,0,0,0],
    [0,0,2,0,0]
]